
Gurobi 8.1.1 (mac64, Python) logging started Tue Dec  3 11:03:20 2019

Academic license - for non-commercial use only
Optimize a model with 15985 rows, 15984 columns and 45810 nonzeros
Variable types: 0 continuous, 15984 integer (0 binary)
Coefficient statistics:
  Matrix range     [1e+00, 1e+00]
  Objective range  [2e+00, 3e+01]
  Bounds range     [0e+00, 0e+00]
  RHS range        [1e+00, 4e+02]
Presolve removed 15552 rows and 8207 columns
Presolve time: 0.04s
Presolved: 433 rows, 7777 columns, 15572 nonzeros
Variable types: 0 continuous, 7777 integer (0 binary)

Root relaxation: objective 7.722435e+03, 283 iterations, 0.01 seconds

    Nodes    |    Current Node    |     Objective Bounds      |     Work
 Expl Unexpl |  Obj  Depth IntInf | Incumbent    BestBd   Gap | It/Node Time

*    0     0               0    7722.4354265 7722.43543  0.00%     -    0s

Explored 0 nodes (283 simplex iterations) in 0.10 seconds
Thread count was 8 (of 8 available processors)

Solution count 1: 7722.44 

Optimal solution found (tolerance 1.00e-04)
Best objective 7.722435426472e+03, best bound 7.722435426472e+03, gap 0.0000%
Optimize a model with 16561 rows, 18648 columns and 62805 nonzeros
Coefficient statistics:
  Matrix range     [1e-01, 1e+00]
  Objective range  [2e+00, 3e+01]
  Bounds range     [0e+00, 0e+00]
  RHS range        [1e+00, 4e+02]

Concurrent LP optimizer: dual simplex and barrier
Showing barrier log only...

Presolve removed 15825 rows and 9032 columns
Presolve time: 0.05s
Presolved: 736 rows, 9616 columns, 21411 nonzeros

Ordering time: 0.00s

Barrier statistics:
 AA' NZ     : 8.467e+03
 Factor NZ  : 3.310e+04 (roughly 4 MBytes of memory)
 Factor Ops : 1.969e+06 (less than 1 second per iteration)
 Threads    : 3

                  Objective                Residual
Iter       Primal          Dual         Primal    Dual     Compl     Time
   0  -2.68584443e+06  4.94317324e+03  1.69e+03 1.10e+01  4.01e+03     0s
   1  -2.44969397e+06  8.83609206e+04  1.21e+03 6.22e-14  7.46e+02     0s
   2  -1.64996361e+04  4.94029839e+04  1.03e+01 5.68e-14  1.09e+01     0s
   3   5.01889499e+03  1.73160200e+04  3.49e-01 4.26e-14  1.37e+00     0s

Barrier performed 3 iterations in 0.09 seconds
Barrier solve interrupted - model solved by another algorithm


Solved with dual simplex
Solved in 724 iterations and 0.09 seconds
Optimal objective  6.960815346e+03
Optimize a model with 16561 rows, 18648 columns and 62805 nonzeros
Coefficient statistics:
  Matrix range     [1e-01, 1e+00]
  Objective range  [2e+00, 3e+01]
  Bounds range     [0e+00, 0e+00]
  RHS range        [1e+00, 4e+02]

Concurrent LP optimizer: dual simplex and barrier
Showing barrier log only...

Presolve removed 15825 rows and 9032 columns
Presolve time: 0.07s
Presolved: 736 rows, 9616 columns, 21411 nonzeros

Ordering time: 0.00s

Barrier statistics:
 AA' NZ     : 8.467e+03
 Factor NZ  : 3.310e+04 (roughly 4 MBytes of memory)
 Factor Ops : 1.969e+06 (less than 1 second per iteration)
 Threads    : 3

                  Objective                Residual
Iter       Primal          Dual         Primal    Dual     Compl     Time
   0  -2.51821018e+06  4.99856425e+03  1.59e+03 1.10e+01  3.76e+03     0s
   1  -2.29901537e+06  8.67274919e+04  1.14e+03 7.11e-14  7.03e+02     0s

Barrier performed 1 iterations in 0.11 seconds
Barrier solve interrupted - model solved by another algorithm


Solved with dual simplex
Solved in 724 iterations and 0.11 seconds
Optimal objective  6.960815346e+03
Optimize a model with 16561 rows, 18648 columns and 62805 nonzeros
Coefficient statistics:
  Matrix range     [1e-01, 1e+00]
  Objective range  [2e+00, 3e+01]
  Bounds range     [0e+00, 0e+00]
  RHS range        [1e+00, 8e+01]

Concurrent LP optimizer: dual simplex and barrier
Showing barrier log only...

Presolve removed 15825 rows and 9032 columns
Presolve time: 0.06s
Presolved: 736 rows, 9616 columns, 21411 nonzeros

Ordering time: 0.00s

Barrier statistics:
 AA' NZ     : 8.467e+03
 Factor NZ  : 3.310e+04 (roughly 4 MBytes of memory)
 Factor Ops : 1.969e+06 (less than 1 second per iteration)
 Threads    : 3

                  Objective                Residual
Iter       Primal          Dual         Primal    Dual     Compl     Time
   0  -1.08187070e+06  5.38637851e+03  6.83e+02 1.10e+01  1.62e+03     0s
   1  -9.32107993e+05  6.63717208e+04  3.77e+02 2.06e-13  2.66e+02     0s
   2  -1.22268228e+04  4.52564043e+04  7.14e+00 1.46e-13  8.88e+00     0s
   3   4.92698239e+03  1.47498528e+04  2.05e-01 1.08e-13  1.07e+00     0s
   4   6.14774796e+03  1.02094260e+04  2.90e-02 4.53e-14  4.25e-01     0s
   5   6.39817864e+03  8.54557244e+03  1.36e-02 2.84e-14  2.23e-01     0s
   6   6.46880528e+03  8.03986890e+03  1.07e-02 1.78e-14  1.63e-01     0s

Barrier performed 6 iterations in 0.10 seconds
Barrier solve interrupted - model solved by another algorithm


Solved with dual simplex
Solved in 691 iterations and 0.10 seconds
Optimal objective  6.960815346e+03
Optimize a model with 16561 rows, 18648 columns and 62805 nonzeros
Coefficient statistics:
  Matrix range     [1e-01, 1e+00]
  Objective range  [2e+00, 3e+01]
  Bounds range     [0e+00, 0e+00]
  RHS range        [1e+00, 6e+01]

Concurrent LP optimizer: dual simplex and barrier
Showing barrier log only...

Presolve removed 15825 rows and 9032 columns
Presolve time: 0.04s
Presolved: 736 rows, 9616 columns, 21411 nonzeros

Ordering time: 0.00s

Barrier statistics:
 AA' NZ     : 8.467e+03
 Factor NZ  : 3.310e+04 (roughly 4 MBytes of memory)
 Factor Ops : 1.969e+06 (less than 1 second per iteration)
 Threads    : 3

                  Objective                Residual
Iter       Primal          Dual         Primal    Dual     Compl     Time
   0  -8.96577259e+05  5.41962802e+03  5.67e+02 1.10e+01  1.34e+03     0s
   1  -6.88595043e+05  6.06319441e+04  1.41e+02 1.39e-13  1.40e+02     0s
   2  -1.77216959e+04  3.29725834e+04  4.62e+00 1.60e-13  7.09e+00     0s
   3   4.08914549e+03  1.46576497e+04  3.01e-01 1.71e-13  1.16e+00     0s
   4   5.80225003e+03  9.49377366e+03  4.64e-02 5.68e-14  3.87e-01     0s
   5   6.16839089e+03  8.20738505e+03  2.15e-02 3.38e-14  2.12e-01     0s
   6   6.44207828e+03  7.61562989e+03  9.16e-03 2.84e-14  1.22e-01     0s
   7   6.56308605e+03  7.34337450e+03  6.10e-03 1.42e-14  8.10e-02     0s
   8   6.64031280e+03  7.20853543e+03  4.68e-03 1.42e-14  5.89e-02     0s
   9   6.74586735e+03  7.09217180e+03  2.84e-03 1.42e-14  3.59e-02     0s
  10   6.80885759e+03  7.04504749e+03  1.81e-03 1.42e-14  2.45e-02     0s

Barrier performed 10 iterations in 0.10 seconds
Barrier solve interrupted - model solved by another algorithm


Solved with dual simplex
Solved in 845 iterations and 0.10 seconds
Optimal objective  6.955256996e+03
Optimize a model with 16561 rows, 18648 columns and 62805 nonzeros
Coefficient statistics:
  Matrix range     [1e-01, 1e+00]
  Objective range  [2e+00, 3e+01]
  Bounds range     [0e+00, 0e+00]
  RHS range        [1e+00, 2e+01]

Concurrent LP optimizer: dual simplex and barrier
Showing barrier log only...

Presolve removed 15825 rows and 9032 columns
Presolve time: 0.04s
Presolved: 736 rows, 9616 columns, 21411 nonzeros

Ordering time: 0.00s

Barrier statistics:
 AA' NZ     : 8.467e+03
 Factor NZ  : 3.310e+04 (roughly 4 MBytes of memory)
 Factor Ops : 1.969e+06 (less than 1 second per iteration)
 Threads    : 3

                  Objective                Residual
Iter       Primal          Dual         Primal    Dual     Compl     Time
   0  -4.69852903e+05  5.47504773e+03  2.99e+02 1.10e+01  7.05e+02     0s
   1  -3.94231529e+05  2.15140068e+04  1.33e+02 5.68e-14  9.97e+01     0s
   2  -3.69431322e+04  1.80691142e+04  1.04e+01 1.01e-13  9.97e+00     0s
   3  -1.71953673e+04  1.14885407e+04  5.52e+00 1.99e-13  4.72e+00     0s
   4  -1.26671370e+04  1.16163815e+03  4.40e+00 1.62e-12  3.51e+00     0s
   5  -1.17484527e+04 -9.93236300e+05  4.19e+00 1.95e-10  3.95e+00     0s
   6  -1.16596300e+04 -1.66964831e+09  4.17e+00 2.33e-07  3.30e+02     0s
   7  -1.16429164e+04 -1.25781697e+14  4.16e+00 2.37e-02  1.23e+07     0s
   8  -1.01756146e+04 -3.33056867e+14  3.78e+00 7.81e-02  9.45e+07     0s
   9  -1.15055562e+04 -3.33054807e+14  3.78e+00 7.81e-02  9.45e+07     0s
  10  -2.78580948e+04 -3.33054744e+14  3.78e+00 9.38e-02  9.45e+07     0s

Barrier performed 10 iterations in 0.10 seconds
Barrier solve interrupted - model solved by another algorithm


Solved with dual simplex
Solved in 1016 iterations and 0.11 seconds
Infeasible or unbounded model
Optimize a model with 16561 rows, 18648 columns and 62805 nonzeros
Coefficient statistics:
  Matrix range     [1e-01, 1e+00]
  Objective range  [2e+00, 3e+01]
  Bounds range     [0e+00, 0e+00]
  RHS range        [1e+00, 4e+02]

Concurrent LP optimizer: dual simplex and barrier
Showing barrier log only...

Presolve removed 15825 rows and 9032 columns
Presolve time: 0.04s
Presolved: 736 rows, 9616 columns, 21411 nonzeros

Ordering time: 0.00s

Barrier statistics:
 AA' NZ     : 8.467e+03
 Factor NZ  : 3.310e+04 (roughly 4 MBytes of memory)
 Factor Ops : 1.969e+06 (less than 1 second per iteration)
 Threads    : 3

                  Objective                Residual
Iter       Primal          Dual         Primal    Dual     Compl     Time
   0  -2.96612049e+06  4.91717109e+03  1.69e+03 1.09e+01  4.02e+03     0s
   1  -2.69917584e+06  8.86216455e+04  1.21e+03 7.46e-14  7.68e+02     0s
   2  -1.90199523e+04  4.94895323e+04  1.04e+01 5.68e-14  1.11e+01     0s
   3   4.94218006e+03  1.74092115e+04  3.18e-01 4.97e-14  1.38e+00     0s
   4   6.12836072e+03  9.94706655e+03  4.73e-02 2.75e-14  4.01e-01     0s
   5   6.52142393e+03  7.74597851e+03  2.64e-03 1.51e-14  1.27e-01     0s
   6   6.67756142e+03  7.30713842e+03  1.15e-03 1.42e-14  6.53e-02     0s
   7   6.78065916e+03  7.06380425e+03  5.07e-04 1.42e-14  2.94e-02     0s

Barrier performed 7 iterations in 0.08 seconds
Barrier solve interrupted - model solved by another algorithm


Solved with dual simplex
Solved in 802 iterations and 0.09 seconds
Optimal objective  6.919655737e+03
Optimize a model with 8881 rows, 10368 columns and 34480 nonzeros
Coefficient statistics:
  Matrix range     [1e-01, 1e+00]
  Objective range  [3e+00, 3e+01]
  Bounds range     [0e+00, 0e+00]
  RHS range        [1e+00, 4e+02]

Concurrent LP optimizer: dual simplex and barrier
Showing barrier log only...

Presolve removed 8266 rows and 4819 columns
Presolve time: 0.03s
Presolved: 615 rows, 5549 columns, 12946 nonzeros

Ordering time: 0.00s

Barrier statistics:
 AA' NZ     : 5.857e+03
 Factor NZ  : 2.571e+04 (roughly 3 MBytes of memory)
 Factor Ops : 1.251e+06 (less than 1 second per iteration)
 Threads    : 3

                  Objective                Residual
Iter       Primal          Dual         Primal    Dual     Compl     Time
   0  -1.60402638e+06  4.81820408e+03  1.20e+03 1.08e+01  4.06e+03     0s
   1  -1.39094635e+06  5.40673771e+04  7.78e+02 1.29e+00  9.29e+02     0s
   2  -4.50524090e+04  3.39633210e+04  1.14e+01 4.35e-14  2.31e+01     0s

Barrier performed 2 iterations in 0.05 seconds
Barrier solve interrupted - model solved by another algorithm


Solved with dual simplex
Solved in 583 iterations and 0.05 seconds
Optimal objective  6.950651544e+03
Optimize a model with 16633 rows, 18648 columns and 62877 nonzeros
Coefficient statistics:
  Matrix range     [1e-01, 1e+00]
  Objective range  [3e-01, 7e+01]
  Bounds range     [0e+00, 0e+00]
  RHS range        [1e+00, 4e+02]

Concurrent LP optimizer: dual simplex and barrier
Showing barrier log only...

Presolve removed 15891 rows and 9025 columns
Presolve time: 0.05s
Presolved: 742 rows, 9623 columns, 21424 nonzeros

Ordering time: 0.00s

Barrier statistics:
 AA' NZ     : 8.473e+03
 Factor NZ  : 3.353e+04 (roughly 4 MBytes of memory)
 Factor Ops : 1.994e+06 (less than 1 second per iteration)
 Threads    : 3

                  Objective                Residual
Iter       Primal          Dual         Primal    Dual     Compl     Time
   0  -1.76810850e+06  1.84860156e+04  3.23e+02 0.00e+00  1.28e+03     0s
   1  -1.12045174e+06  2.53613959e+04  9.58e+01 1.29e+00  1.89e+02     0s
   2  -9.28493366e+04  2.11250926e+04  6.41e+00 2.61e-01  1.57e+01     0s
   3  -1.16368757e+03  1.26894671e+04  2.19e-01 7.04e-02  1.57e+00     0s
   4   3.36549455e+03  6.63046446e+03  1.82e-02 1.81e-02  3.53e-01     0s

Barrier performed 4 iterations in 0.08 seconds
Barrier solve interrupted - model solved by another algorithm


Solved with dual simplex
Solved in 530 iterations and 0.08 seconds
Optimal objective  4.612283132e+03

Gurobi 8.1.1 (mac64, Python) logging started Tue Dec  3 15:51:02 2019

Academic license - for non-commercial use only
Optimize a model with 15985 rows, 15984 columns and 45810 nonzeros
Variable types: 0 continuous, 15984 integer (0 binary)
Coefficient statistics:
  Matrix range     [1e+00, 1e+00]
  Objective range  [2e+00, 3e+01]
  Bounds range     [0e+00, 0e+00]
  RHS range        [1e+00, 4e+02]
Presolve removed 15552 rows and 8207 columns
Presolve time: 0.03s
Presolved: 433 rows, 7777 columns, 15572 nonzeros
Variable types: 0 continuous, 7777 integer (0 binary)

Root relaxation: objective 7.722435e+03, 283 iterations, 0.01 seconds

    Nodes    |    Current Node    |     Objective Bounds      |     Work
 Expl Unexpl |  Obj  Depth IntInf | Incumbent    BestBd   Gap | It/Node Time

*    0     0               0    7722.4354265 7722.43543  0.00%     -    0s

Explored 0 nodes (283 simplex iterations) in 0.07 seconds
Thread count was 8 (of 8 available processors)

Solution count 1: 7722.44 

Optimal solution found (tolerance 1.00e-04)
Best objective 7.722435426472e+03, best bound 7.722435426472e+03, gap 0.0000%
Optimize a model with 16561 rows, 18648 columns and 62805 nonzeros
Coefficient statistics:
  Matrix range     [1e-01, 1e+00]
  Objective range  [2e+00, 3e+01]
  Bounds range     [0e+00, 0e+00]
  RHS range        [1e+00, 4e+02]

Concurrent LP optimizer: dual simplex and barrier
Showing barrier log only...

Presolve removed 15825 rows and 9032 columns
Presolve time: 0.04s
Presolved: 736 rows, 9616 columns, 21411 nonzeros

Ordering time: 0.00s

Barrier statistics:
 AA' NZ     : 8.467e+03
 Factor NZ  : 3.310e+04 (roughly 4 MBytes of memory)
 Factor Ops : 1.969e+06 (less than 1 second per iteration)
 Threads    : 3

                  Objective                Residual
Iter       Primal          Dual         Primal    Dual     Compl     Time
   0  -2.68584443e+06  4.94317324e+03  1.69e+03 1.10e+01  4.01e+03     0s
   1  -2.44969397e+06  8.83609206e+04  1.21e+03 6.22e-14  7.46e+02     0s
   2  -1.64996361e+04  4.94029839e+04  1.03e+01 5.68e-14  1.09e+01     0s
   3   5.01889499e+03  1.73160200e+04  3.49e-01 4.26e-14  1.37e+00     0s
   4   6.19427297e+03  9.82002224e+03  5.58e-02 2.84e-14  3.82e-01     0s
   5   6.57967746e+03  7.71579355e+03  4.00e-03 1.60e-14  1.18e-01     0s
   6   6.73317336e+03  7.32302452e+03  1.66e-03 1.42e-14  6.12e-02     0s

Barrier performed 6 iterations in 0.09 seconds
Barrier solve interrupted - model solved by another algorithm


Solved with dual simplex
Solved in 724 iterations and 0.09 seconds
Optimal objective  6.960815346e+03
Optimize a model with 16561 rows, 18648 columns and 62805 nonzeros
Coefficient statistics:
  Matrix range     [1e-01, 1e+00]
  Objective range  [2e+00, 3e+01]
  Bounds range     [0e+00, 0e+00]
  RHS range        [1e+00, 4e+02]

Concurrent LP optimizer: dual simplex and barrier
Showing barrier log only...

Presolve removed 15825 rows and 9032 columns
Presolve time: 0.06s
Presolved: 736 rows, 9616 columns, 21411 nonzeros

Ordering time: 0.00s

Barrier statistics:
 AA' NZ     : 8.467e+03
 Factor NZ  : 3.310e+04 (roughly 4 MBytes of memory)
 Factor Ops : 1.969e+06 (less than 1 second per iteration)
 Threads    : 3

                  Objective                Residual
Iter       Primal          Dual         Primal    Dual     Compl     Time
   0  -2.51821018e+06  4.99856425e+03  1.59e+03 1.10e+01  3.76e+03     0s
   1  -2.29901537e+06  8.67274919e+04  1.14e+03 7.11e-14  7.03e+02     0s
   2  -1.70734767e+04  4.95845144e+04  1.07e+01 7.11e-14  1.11e+01     0s
   3   4.90200863e+03  1.72671659e+04  3.96e-01 7.11e-14  1.40e+00     0s
   4   6.06973772e+03  8.73346959e+03  9.71e-02 3.91e-14  2.83e-01     0s
   5   6.60548382e+03  7.65423205e+03  9.25e-03 2.84e-14  1.09e-01     0s
   6   6.77007574e+03  7.25773890e+03  3.83e-03 1.42e-14  5.06e-02     0s

Barrier performed 6 iterations in 0.11 seconds
Barrier solve interrupted - model solved by another algorithm


Solved with dual simplex
Solved in 724 iterations and 0.11 seconds
Optimal objective  6.960815346e+03
Optimize a model with 16561 rows, 18648 columns and 62805 nonzeros
Coefficient statistics:
  Matrix range     [1e-01, 1e+00]
  Objective range  [2e+00, 3e+01]
  Bounds range     [0e+00, 0e+00]
  RHS range        [1e+00, 8e+01]

Concurrent LP optimizer: dual simplex and barrier
Showing barrier log only...

Presolve removed 15825 rows and 9032 columns
Presolve time: 0.05s
Presolved: 736 rows, 9616 columns, 21411 nonzeros

Ordering time: 0.00s

Barrier statistics:
 AA' NZ     : 8.467e+03
 Factor NZ  : 3.310e+04 (roughly 4 MBytes of memory)
 Factor Ops : 1.969e+06 (less than 1 second per iteration)
 Threads    : 3

                  Objective                Residual
Iter       Primal          Dual         Primal    Dual     Compl     Time
   0  -1.08187070e+06  5.38637851e+03  6.83e+02 1.10e+01  1.62e+03     0s
   1  -9.32107993e+05  6.63717208e+04  3.77e+02 2.06e-13  2.66e+02     0s
   2  -1.22268228e+04  4.52564043e+04  7.14e+00 1.46e-13  8.88e+00     0s
   3   4.92698239e+03  1.47498528e+04  2.05e-01 1.08e-13  1.07e+00     0s
   4   6.14774796e+03  1.02094260e+04  2.90e-02 4.53e-14  4.25e-01     0s
   5   6.39817864e+03  8.54557244e+03  1.36e-02 2.84e-14  2.23e-01     0s
   6   6.46880528e+03  8.03986890e+03  1.07e-02 1.78e-14  1.63e-01     0s

Barrier performed 6 iterations in 0.10 seconds
Barrier solve interrupted - model solved by another algorithm


Solved with dual simplex
Solved in 691 iterations and 0.10 seconds
Optimal objective  6.960815346e+03
Optimize a model with 16561 rows, 18648 columns and 62805 nonzeros
Coefficient statistics:
  Matrix range     [1e-01, 1e+00]
  Objective range  [2e+00, 3e+01]
  Bounds range     [0e+00, 0e+00]
  RHS range        [1e+00, 6e+01]

Concurrent LP optimizer: dual simplex and barrier
Showing barrier log only...

Presolve removed 15825 rows and 9032 columns
Presolve time: 0.06s
Presolved: 736 rows, 9616 columns, 21411 nonzeros

Ordering time: 0.00s

Barrier statistics:
 AA' NZ     : 8.467e+03
 Factor NZ  : 3.310e+04 (roughly 4 MBytes of memory)
 Factor Ops : 1.969e+06 (less than 1 second per iteration)
 Threads    : 3

                  Objective                Residual
Iter       Primal          Dual         Primal    Dual     Compl     Time
   0  -8.96577259e+05  5.41962802e+03  5.67e+02 1.10e+01  1.34e+03     0s
   1  -6.88595043e+05  6.06319441e+04  1.41e+02 1.39e-13  1.40e+02     0s
   2  -1.77216959e+04  3.29725834e+04  4.62e+00 1.60e-13  7.09e+00     0s
   3   4.08914549e+03  1.46576497e+04  3.01e-01 1.71e-13  1.16e+00     0s
   4   5.80225003e+03  9.49377366e+03  4.64e-02 5.68e-14  3.87e-01     0s
   5   6.16839089e+03  8.20738505e+03  2.15e-02 3.38e-14  2.12e-01     0s

Barrier performed 5 iterations in 0.11 seconds
Barrier solve interrupted - model solved by another algorithm


Solved with dual simplex
Solved in 845 iterations and 0.11 seconds
Optimal objective  6.955256996e+03
Optimize a model with 16561 rows, 18648 columns and 62805 nonzeros
Coefficient statistics:
  Matrix range     [1e-01, 1e+00]
  Objective range  [2e+00, 3e+01]
  Bounds range     [0e+00, 0e+00]
  RHS range        [1e+00, 2e+01]

Concurrent LP optimizer: dual simplex and barrier
Showing barrier log only...

Presolve removed 15825 rows and 9032 columns
Presolve time: 0.05s
Presolved: 736 rows, 9616 columns, 21411 nonzeros

Ordering time: 0.00s

Barrier statistics:
 AA' NZ     : 8.467e+03
 Factor NZ  : 3.310e+04 (roughly 4 MBytes of memory)
 Factor Ops : 1.969e+06 (less than 1 second per iteration)
 Threads    : 3

                  Objective                Residual
Iter       Primal          Dual         Primal    Dual     Compl     Time
   0  -4.69852903e+05  5.47504773e+03  2.99e+02 1.10e+01  7.05e+02     0s
   1  -3.94231529e+05  2.15140068e+04  1.33e+02 5.68e-14  9.97e+01     0s
   2  -3.69431322e+04  1.80691142e+04  1.04e+01 1.01e-13  9.97e+00     0s
   3  -1.71953673e+04  1.14885407e+04  5.52e+00 1.99e-13  4.72e+00     0s
   4  -1.26671370e+04  1.16163815e+03  4.40e+00 1.62e-12  3.51e+00     0s
   5  -1.17484527e+04 -9.93236300e+05  4.19e+00 1.95e-10  3.95e+00     0s
   6  -1.16596300e+04 -1.66964831e+09  4.17e+00 2.33e-07  3.30e+02     0s
   7  -1.16429164e+04 -1.25781697e+14  4.16e+00 2.37e-02  1.23e+07     0s
   8  -1.01756146e+04 -3.33056867e+14  3.78e+00 7.81e-02  9.45e+07     0s

Barrier performed 8 iterations in 0.11 seconds
Barrier solve interrupted - model solved by another algorithm


Solved with dual simplex
Solved in 1016 iterations and 0.11 seconds
Infeasible or unbounded model
Optimize a model with 16561 rows, 18648 columns and 62805 nonzeros
Coefficient statistics:
  Matrix range     [1e-01, 1e+00]
  Objective range  [2e+00, 3e+01]
  Bounds range     [0e+00, 0e+00]
  RHS range        [1e+00, 4e+02]

Concurrent LP optimizer: dual simplex and barrier
Showing barrier log only...

Presolve removed 15825 rows and 9032 columns
Presolve time: 0.04s
Presolved: 736 rows, 9616 columns, 21411 nonzeros

Ordering time: 0.00s

Barrier statistics:
 AA' NZ     : 8.467e+03
 Factor NZ  : 3.310e+04 (roughly 4 MBytes of memory)
 Factor Ops : 1.969e+06 (less than 1 second per iteration)
 Threads    : 3

                  Objective                Residual
Iter       Primal          Dual         Primal    Dual     Compl     Time
   0  -2.96612049e+06  4.91717109e+03  1.69e+03 1.09e+01  4.02e+03     0s
   1  -2.69917584e+06  8.86216455e+04  1.21e+03 7.46e-14  7.68e+02     0s
   2  -1.90199523e+04  4.94895323e+04  1.04e+01 5.68e-14  1.11e+01     0s
   3   4.94218006e+03  1.74092115e+04  3.18e-01 4.97e-14  1.38e+00     0s
   4   6.12836072e+03  9.94706655e+03  4.73e-02 2.75e-14  4.01e-01     0s
   5   6.52142393e+03  7.74597851e+03  2.64e-03 1.51e-14  1.27e-01     0s
   6   6.67756142e+03  7.30713842e+03  1.15e-03 1.42e-14  6.53e-02     0s
   7   6.78065916e+03  7.06380425e+03  5.07e-04 1.42e-14  2.94e-02     0s

Barrier performed 7 iterations in 0.09 seconds
Barrier solve interrupted - model solved by another algorithm


Solved with dual simplex
Solved in 802 iterations and 0.09 seconds
Optimal objective  6.919655737e+03
Optimize a model with 8881 rows, 10368 columns and 34480 nonzeros
Coefficient statistics:
  Matrix range     [1e-01, 1e+00]
  Objective range  [3e+00, 3e+01]
  Bounds range     [0e+00, 0e+00]
  RHS range        [1e+00, 4e+02]

Concurrent LP optimizer: dual simplex and barrier
Showing barrier log only...

Presolve removed 8266 rows and 4819 columns
Presolve time: 0.03s
Presolved: 615 rows, 5549 columns, 12946 nonzeros

Ordering time: 0.00s

Barrier statistics:
 AA' NZ     : 5.857e+03
 Factor NZ  : 2.571e+04 (roughly 3 MBytes of memory)
 Factor Ops : 1.251e+06 (less than 1 second per iteration)
 Threads    : 3

                  Objective                Residual
Iter       Primal          Dual         Primal    Dual     Compl     Time
   0  -1.60402638e+06  4.81820408e+03  1.20e+03 1.08e+01  4.06e+03     0s
   1  -1.39094635e+06  5.40673771e+04  7.78e+02 1.29e+00  9.29e+02     0s

Barrier performed 1 iterations in 0.05 seconds
Barrier solve interrupted - model solved by another algorithm


Solved with dual simplex
Solved in 583 iterations and 0.05 seconds
Optimal objective  6.950651544e+03
Optimize a model with 16633 rows, 18648 columns and 62877 nonzeros
Coefficient statistics:
  Matrix range     [1e-01, 1e+00]
  Objective range  [3e-01, 7e+01]
  Bounds range     [0e+00, 0e+00]
  RHS range        [1e+00, 4e+02]

Concurrent LP optimizer: dual simplex and barrier
Showing barrier log only...

Presolve removed 15891 rows and 9025 columns
Presolve time: 0.05s
Presolved: 742 rows, 9623 columns, 21424 nonzeros

Ordering time: 0.00s

Barrier statistics:
 AA' NZ     : 8.473e+03
 Factor NZ  : 3.353e+04 (roughly 4 MBytes of memory)
 Factor Ops : 1.994e+06 (less than 1 second per iteration)
 Threads    : 3

                  Objective                Residual
Iter       Primal          Dual         Primal    Dual     Compl     Time
   0  -1.76810850e+06  1.84860156e+04  3.23e+02 0.00e+00  1.28e+03     0s
   1  -1.12045174e+06  2.53613959e+04  9.58e+01 1.29e+00  1.89e+02     0s
   2  -9.28493366e+04  2.11250926e+04  6.41e+00 2.61e-01  1.57e+01     0s
   3  -1.16368757e+03  1.26894671e+04  2.19e-01 7.04e-02  1.57e+00     0s

Barrier performed 3 iterations in 0.09 seconds
Barrier solve interrupted - model solved by another algorithm


Solved with dual simplex
Solved in 530 iterations and 0.10 seconds
Optimal objective  4.612283132e+03
